*******************************************************************************
* Problem type: SC-CP16
* Input file: ../instances/bp-100-20-4-10-15454.dat
* 4 objectives
* 100 variables
* 20 constraints
*******************************************************************************

min: +84 x58 +19 x65 +19 x88 +82 x89 ;
 +1 x88 >= 1 ;
 +1 x58 >= 1 ;
